c File: instances/14_0.80_3.col
c
c Description: Random graph of size 14 vertices and P(0.8000000000000002) of edges between any two vertices.
p col 14 91
e 1 2
e 1 3
e 1 4
e 1 5
e 1 7
e 1 8
e 1 9
e 1 10
e 1 13
e 2 3
e 2 4
e 2 5
e 2 6
e 2 7
e 2 9
e 2 10
e 2 11
e 2 13
e 2 14
e 3 4
e 3 5
e 3 6
e 3 7
e 3 9
e 3 10
e 3 11
e 3 12
e 3 13
e 3 14
e 4 6
e 4 7
e 4 8
e 4 9
e 4 11
e 4 12
e 4 13
e 4 14
e 5 7
e 5 8
e 5 9
e 5 10
e 5 11
e 5 12
e 5 13
e 5 14
e 6 9
e 6 10
e 6 12
e 6 14
e 7 8
e 7 10
e 7 13
e 7 14
e 8 9
e 8 11
e 8 12
e 8 13
e 8 14
e 9 10
e 9 11
e 9 12
e 9 13
e 9 14
e 10 12
e 10 13
e 10 14
e 11 12
e 11 13
e 11 14
e 12 14
e 13 14